
  32    4
  10   10   10   10

   0   0   0   0   0  12 2 4 5 6 7 9 10 13 14 15 16 22 
   3   1   1   1   0   5 29 28 20 12 3 
   6   6   0   5   1   6 31 30 27 21 17 8 
   1   0   1   6   7   6 27 26 23 21 18 17 
   3   2   5   0   5   4 28 25 19 11 
   6   6   3   0   3   5 29 26 25 20 18 
   7   3   0   4   3   4 28 21 20 17 
   4   3   0   4   3   3 25 19 11 
   9   5   4   0   6   2 31 11 
   9   6   5   0   7   4 29 27 24 23 
   5   0   4   4   4   3 26 23 18 
   1   2   0   3   5   3 25 24 19 
   1   6   1   0   4   3 30 28 20 
   2   3   0   2   2   3 27 26 20 
   4   0   5   3   2   3 26 25 18 
   7   0   6   5   3   3 26 25 19 
   4   0   4   2   5   2 25 24 
   4   0   4   5   9   1 24 
   4   0   5   2   6   1 23 
   8   0   2   4   1   1 23 
   9   2   2   5   0   1 24 
   5   5   0   4   5   1 25 
   9   5   4   8   0   1 32
   6   7   4   0   2   1 32
   8   4   9   0   4   1 32
   2   0   2   4   6   1 32
  10   4   0   3   2   1 32
   5   1   4   0   5   1 32
   1   5   5   0   2   1 32
   6   0   2   6   2   1 32
   8   4  10   4   0   1 32
   0   0   0   0   0   0 
